COLUMNS

passenger_count
pickup_ID
dropoff_ID
request_time_sec
pickup_district
dropoff_district
LDuals
IDuals
vehicle_ID
pick_position
drop_position

REQUESTS_INFO
1      858       647       30923     290       280       118       118       4         1         3         
4      391       452       30894     52        52        167       167       44        1         2         
3      947       602       30907     290       189       176       176       139       1         3         
1      461       552       30901     189       189       183       183       162       1         2         
2      618       250       30916     131       127       154       154       172       1         3         
1      713       604       30911     131       189       166       166       184       1         3         
1      817       561       30919     290       189       120       120       261       1         4         
1      834       628       30915     290       189       165       165       326       1         2         
1      412       696       30911     52        189       150       150       336       1         3         
3      813       743       30922     290       290       155       155       338       1         2         
1      837       46        30927     290       98        119       119       353       1         3         
1      967       555       30896     50        199       183       183       388       1         2         
3      486       572       30875     199       131       176       176       466       1         2         
2      527       675       30884     52        189       198       198       469       1         2         
1      768       906       30904     290       290       166       166       508       1         3         
3      1002      619       30909     291       131       217       217       541       1         3         
1      714       862       30921     131       290       144       144       547       1         3         
1      295       228       30872     87        266       159       159       565       1         3         
3      721       738       30901     290       189       117       117       622       1         2         
1      894       727       30814     291       290       260       260       677       1         3         
3      768       782       30903     290       291       167       167       694       1         2         
1      875       578       30905     291       189       204       204       720       1         3         
1      811       760       30897     290       291       168       168       764       1         2         
1      970       720       30911     290       290       164       164       811       1         3         
1      722       646       30901     290       280       137       137       832       1         3         
1      815       669       30889     290       280       169       169       838       1         2         
2      633       48        30890     189       98        147       147       854       1         2         
1      464       606       30904     168       189       132       132       864       1         3         
1      771       600       30923     290       280       102       102       876       1         2         
3      485       419       30925     189       168       135       135       898       1         2         
1      984       883       30910     291       290       196       196       904       1         3         
2      795       696       30900     290       189       160       160       906       1         3         
3      959       1250      30854     291       129       260       260       926       1         2         
3      1023      695       30912     291       189       180       180       935       1         2         
1      554       415       30922     189       100       119       119       937       1         3         
1      1065      1067      30923     291       291       124       124       1035      1         2         
1      970       945       30903     290       50        172       172       1036      1         2         
1      296       882       30919     277       290       159       159       1102      1         2         
1      1087      483       30823     291       189       227       227       1109      1         3         
2      1025      859       30861     291       290       258       258       1116      1         2         
1      654       511       30913     189       199       120       120       1119      1         3         
1      913       884       30791     291       290       324       324       1128      1         2         
3      791       604       30914     290       189       167       167       1143      1         2         
1      980       833       30892     291       50        237       237       1207      1         2         
1      959       698       30853     291       189       258       258       1303      1         2         
1      550       696       30925     189       189       113       113       1354      1         3         
3      915       605       30902     291       189       190       190       1387      1         3         
3      1002      619       30909     291       131       217       217       1488      1         2         
1      526       290       30901     52        127       167       167       1719      1         3         
1      397       606       30901     168       189       161       161       1726      1         4         
1      397       553       30923     168       189       139       139       1726      2         3         
1      488       606       30922     199       189       132       132       1758      1         2         
1      510       602       30927     199       189       93        93        1819      1         3         
1      274       277       30924     87        87        121       121       1918      1         3         
1      780       1088      30918     291       291       161       161       1936      1         2         
1      909       984       30887     290       291       189       189       1973      1         2         
1      349       430       30930     127       52        0         0         0         0         0         
1      766       46        30930     290       98        0         0         0         0         0         
3      292       10        30930     87        98        0         0         0         0         0         
1      694       639       30930     189       131       0         0         0         0         0         
3      510       529       30931     199       189       0         0         0         0         0         
2      366       483       30931     299       189       0         0         0         0         0         
3      366       483       30931     299       189       0         0         0         0         0         
3      510       529       30931     199       189       0         0         0         0         0         
1      556       305       30931     199       299       0         0         0         0         0         
1      859       713       30931     290       131       0         0         0         0         0         
1      578       81        30931     189       98        0         0         0         0         0         
1      386       696       30932     299       189       0         0         0         0         0         
2      902       677       30932     50        189       0         0         0         0         0         
1      926       924       30932     290       290       0         0         0         0         0         
4      1087      738       30932     291       189       0         0         0         0         0         
1      285       530       30932     299       189       0         0         0         0         0         
2      397       443       30933     168       168       0         0         0         0         0         
2      963       746       30933     50        290       0         0         0         0         0         
1      598       372       30933     189       119       0         0         0         0         0         
3      557       409       30933     189       52        0         0         0         0         0         
3      557       409       30933     189       52        0         0         0         0         0         
2      985       1233      30933     50        129       0         0         0         0         0         
1      811       415       30934     290       100       0         0         0         0         0         
1      882       604       30934     290       189       0         0         0         0         0         
1      702       558       30934     290       189       0         0         0         0         0         
1      438       626       30934     100       189       0         0         0         0         0         
1      209       435       30934     266       52        0         0         0         0         0         
1      330       535       30937     127       189       0         0         0         0         0         
1      99        20        30937     286       98        0         0         0         0         0         
1      643       357       30937     131       277       0         0         0         0         0         
2      668       650       30938     280       189       0         0         0         0         0         
2      702       20        30938     290       98        0         0         0         0         0         
1      397       292       30938     168       87        0         0         0         0         0         
1      330       409       30938     127       52        0         0         0         0         0         
2      1149      544       30938     291       52        0         0         0         0         0         
3      668       650       30938     280       189       0         0         0         0         0         
3      1149      544       30938     291       52        0         0         0         0         0         
1      528       674       30939     52        189       0         0         0         0         0         
1      781       648       30939     291       189       0         0         0         0         0         
1      271       232       30939     127       266       0         0         0         0         0         
1      330       576       30939     127       189       0         0         0         0         0         
1      509       458       30939     199       52        0         0         0         0         0         
4      914       937       30939     291       291       0         0         0         0         0         
1      556       719       30940     199       189       0         0         0         0         0         
1      848       459       30940     291       189       0         0         0         0         0         
2      304       676       30940     299       189       0         0         0         0         0         
2      534       1149      30940     199       291       0         0         0         0         0         
1      608       817       30940     189       290       0         0         0         0         0         
1      1000      1529      30940     291       296       0         0         0         0         0         
1      802       648       30941     291       189       0         0         0         0         0         
1      699       631       30941     290       189       0         0         0         0         0         
1      228       213       30941     266       266       0         0         0         0         0         
1      688       693       30941     131       280       0         0         0         0         0         
1      743       483       30941     290       189       0         0         0         0         0         
1      745       1054      30942     290       84        0         0         0         0         0         
1      465       578       30942     199       189       0         0         0         0         0         
2      549       671       30942     52        280       0         0         0         0         0         
1      871       742       30942     291       290       0         0         0         0         0         
2      528       556       30943     52        199       0         0         0         0         0         
1      483       350       30943     189       127       0         0         0         0         0         
1      267       676       30943     266       189       0         0         0         0         0         
4      457       482       30943     52        189       0         0         0         0         0         
1      293       162       30943     87        178       0         0         0         0         0         
1      692       652       30943     280       189       0         0         0         0         0         
3      715       925       30943     131       290       0         0         0         0         0         
3      498       416       30943     52        100       0         0         0         0         0         
2      498       416       30943     52        100       0         0         0         0         0         
2      715       925       30943     131       290       0         0         0         0         0         
3      210       377       30944     266       168       0         0         0         0         0         
3      210       377       30944     266       168       0         0         0         0         0         
1      723       626       30944     290       189       0         0         0         0         0         
1      1000      748       30944     291       290       0         0         0         0         0         
1      484       596       30944     189       131       0         0         0         0         0         
1      556       571       30944     199       52        0         0         0         0         0         
2      287       377       30945     299       168       0         0         0         0         0         
2      304       46        30945     299       98        0         0         0         0         0         
3      304       46        30945     299       98        0         0         0         0         0         
1      99        210       30945     286       266       0         0         0         0         0         
1      415       605       30945     100       189       0         0         0         0         0         
1      285       408       30945     299       299       0         0         0         0         0         
1      963       829       30946     50        50        0         0         0         0         0         
2      693       31        30947     280       9         0         0         0         0         0         
1      745       628       30947     290       189       0         0         0         0         0         
1      991       744       30947     290       290       0         0         0         0         0         
1      946       433       30947     290       52        0         0         0         0         0         
1      488       10        30947     199       98        0         0         0         0         0         
2      738       581       30948     189       189       0         0         0         0         0         
1      648       691       30948     189       131       0         0         0         0         0         
3      738       581       30948     189       189       0         0         0         0         0         
1      607       46        30949     189       98        0         0         0         0         0         
1      824       760       30949     291       291       0         0         0         0         0         
1      598       439       30949     189       189       0         0         0         0         0         
2      1213      1227      30950     129       192       0         0         0         0         0         
3      1213      1227      30950     129       192       0         0         0         0         0         
1      386       272       30950     299       127       0         0         0         0         0         
2      332       238       30950     87        87        0         0         0         0         0         
1      745       628       30950     290       189       0         0         0         0         0         
1      191       21        30950     266       98        0         0         0         0         0         
1      481       585       30950     189       999       0         0         0         0         0         
1      772       600       30950     290       280       0         0         0         0         0         
1      280       884       30950     277       290       0         0         0         0         0         
1      374       502       30950     119       52        0         0         0         0         0         
1      412       549       30951     52        52        0         0         0         0         0         
1      304       671       30951     299       280       0         0         0         0         0         
1      331       185       30951     127       87        0         0         0         0         0         
1      328       718       30951     299       189       0         0         0         0         0         
4      603       650       30951     189       189       0         0         0         0         0         
1      759       671       30951     131       280       0         0         0         0         0         
2      702       761       30952     290       50        0         0         0         0         0         
1      250       651       30952     127       189       0         0         0         0         0         
1      969       745       30952     290       290       0         0         0         0         0         
1      559       483       30952     189       189       0         0         0         0         0         
1      938       291       30953     291       87        0         0         0         0         0         
1      554       116       30953     189       9         0         0         0         0         0         
1      1031      759       30953     50        131       0         0         0         0         0         
1      701       602       30954     290       189       0         0         0         0         0         
1      696       504       30954     189       52        0         0         0         0         0         
1      884       971       30954     290       290       0         0         0         0         0         
3      550       694       30955     189       189       0         0         0         0         0         
3      550       694       30955     189       189       0         0         0         0         0         
1      862       578       30955     290       189       0         0         0         0         0         
4      457       373       30955     52        119       0         0         0         0         0         
1      81        458       30955     98        52        0         0         0         0         0         
1      152       522       30956     9         52        0         0         0         0         0         
1      531       79        30956     189       98        0         0         0         0         0         
2      721       923       30956     290       290       0         0         0         0         0         
3      721       923       30956     290       290       0         0         0         0         0         
1      795       862       30957     290       290       0         0         0         0         0         
1      950       748       30957     290       290       0         0         0         0         0         
2      452       628       30957     52        189       0         0         0         0         0         
2      694       780       30957     189       291       0         0         0         0         0         
3      694       780       30957     189       291       0         0         0         0         0         
1      522       208       30957     52        286       0         0         0         0         0         
4      702       721       30957     290       290       0         0         0         0         0         
1      939       690       30958     291       131       0         0         0         0         0         
1      528       603       30958     52        189       0         0         0         0         0         
1      504       771       30958     52        290       0         0         0         0         0         
1      374       581       30958     119       189       0         0         0         0         0         
2      527       767       30958     52        290       0         0         0         0         0         
1      549       624       30958     52        189       0         0         0         0         0         
3      487       288       30959     199       127       0         0         0         0         0         
1      398       350       30959     168       127       0         0         0         0         0         
2      291       238       30959     87        87        0         0         0         0         0         
1      935       724       30959     291       290       0         0         0         0         0         
